
Gurobi 6.5.2 (linux64) logging started Sun Sep 18 18:43:24 2016


Gurobi 6.5.2 (linux64) logging started Sun Sep 18 18:43:24 2016

Optimize a model with 201 rows, 1585 columns and 3171 nonzeros
Coefficient statistics:
  Matrix range    [1e+00, 2e+00]
  Objective range [2e+00, 1e+02]
  Bounds range    [1e+00, 1e+00]
  RHS range       [1e+00, 1e+00]
Found heuristic solution: objective 5655
Presolve removed 101 rows and 100 columns
Presolve time: 0.00s
Presolved: 100 rows, 1485 columns, 2970 nonzeros
Variable types: 0 continuous, 1485 integer (1485 binary)

Root relaxation: objective 1.513000e+03, 147 iterations, 0.00 seconds

    Nodes    |    Current Node    |     Objective Bounds      |     Work
 Expl Unexpl |  Obj  Depth IntInf | Incumbent    BestBd   Gap | It/Node Time

     0     0 1513.00000    0   17 5655.00000 1513.00000  73.2%     -    0s
     0     0 1513.00000    0   28 5655.00000 1513.00000  73.2%     -    0s
     0     2 1514.10000    0   25 5655.00000 1514.10000  73.2%     -    0s
*   26    13              13    1529.0000000 1515.00000  0.92%   2.6    0s
H 1525   198                    1524.0000000 1520.50000  0.23%   4.0    0s

Cutting planes:
  Lazy constraints: 175

Explored 1854 nodes (7205 simplex iterations) in 0.36 seconds
Thread count was 8 (of 8 available processors)

Optimal solution found (tolerance 1.00e-04)
Best objective 1.524000000000e+03, best bound 1.524000000000e+03, gap 0.0%
